NAME          
ROWS
 N  OBJ
 L  expansion_budget 
 L  PR_ub_{101} 
 L  PR_ub_{102} 
 L  PR_ub_{103} 
 L  PR_ub_{104} 
 L  PR_ub_{105} 
 L  PR_ub_{106} 
 L  PR_ub_{107} 
 L  PR_ub_{108} 
 L  PR_ub_{109} 
 L  PR_ub_{110} 
 L  PR_ub_{111} 
 L  PR_ub_{112} 
 L  PR_ub_{113} 
 L  PR_ub_{114} 
 L  PR_ub_{115} 
 L  PR_ub_{116} 
 L  PR_ub_{117} 
 L  PR_ub_{118} 
 L  PR_ub_{119} 
 L  PR_ub_{120} 
 L  PR_ub_{121} 
 L  PR_ub_{122} 
 L  PR_ub_{123} 
 L  PR_ub_{124} 
 G  ER_lb_{101} 
 G  PR_lb_{101} 
 G  ER_lb_{102} 
 G  PR_lb_{102} 
 G  ER_lb_{103} 
 G  PR_lb_{103} 
 G  ER_lb_{104} 
 G  PR_lb_{104} 
 G  ER_lb_{105} 
 G  PR_lb_{105} 
 G  ER_lb_{106} 
 G  PR_lb_{106} 
 G  ER_lb_{107} 
 G  PR_lb_{107} 
 G  ER_lb_{108} 
 G  PR_lb_{108} 
 G  ER_lb_{109} 
 G  PR_lb_{109} 
 G  ER_lb_{110} 
 G  PR_lb_{110} 
 G  ER_lb_{111} 
 G  PR_lb_{111} 
 G  ER_lb_{112} 
 G  PR_lb_{112} 
 G  ER_lb_{113} 
 G  PR_lb_{113} 
 G  ER_lb_{114} 
 G  PR_lb_{114} 
 G  ER_lb_{115} 
 G  PR_lb_{115} 
 G  ER_lb_{116} 
 G  PR_lb_{116} 
 G  ER_lb_{117} 
 G  PR_lb_{117} 
 G  ER_lb_{118} 
 G  PR_lb_{118} 
 G  ER_lb_{119} 
 G  PR_lb_{119} 
 G  ER_lb_{120} 
 G  PR_lb_{120} 
 G  ER_lb_{121} 
 G  PR_lb_{121} 
 G  ER_lb_{122} 
 G  PR_lb_{122} 
 G  ER_lb_{123} 
 G  PR_lb_{123} 
 G  ER_lb_{124} 
 G  PR_lb_{124} 
COLUMNS
    PR_{101}  expansion_budget 56.70925999999999 
    PR_{101}  PR_ub_{101} 1
    PR_{101}  PR_lb_{101} 1
    PR_{101}  OBJ       56.70925999999999 
    ER_{101}  expansion_budget 0.30315
    ER_{101}  PR_ub_{101} -0.8
    ER_{101}  ER_lb_{101} 1
    ER_{101}  PR_lb_{101} -0.2
    ER_{101}  OBJ       0.30315
    PR_{102}  expansion_budget 56.59701999999999 
    PR_{102}  PR_ub_{102} 1
    PR_{102}  PR_lb_{102} 1
    PR_{102}  OBJ       56.59701999999999 
    ER_{102}  expansion_budget 0.30255
    ER_{102}  PR_ub_{102} -0.8
    ER_{102}  ER_lb_{102} 1
    ER_{102}  PR_lb_{102} -0.2
    ER_{102}  OBJ       0.30255
    PR_{103}  expansion_budget 56.65314
    PR_{103}  PR_ub_{103} 1
    PR_{103}  PR_lb_{103} 1
    PR_{103}  OBJ       56.65314
    ER_{103}  expansion_budget 0.30285
    ER_{103}  PR_ub_{103} -0.8
    ER_{103}  ER_lb_{103} 1
    ER_{103}  PR_lb_{103} -0.2
    ER_{103}  OBJ       0.30285
    PR_{104}  expansion_budget 55.64298
    PR_{104}  PR_ub_{104} 1
    PR_{104}  PR_lb_{104} 1
    PR_{104}  OBJ       55.64298
    ER_{104}  expansion_budget 0.29745
    ER_{104}  PR_ub_{104} -0.8
    ER_{104}  ER_lb_{104} 1
    ER_{104}  PR_lb_{104} -0.2
    ER_{104}  OBJ       0.29745
    PR_{105}  expansion_budget 56.48477999999999 
    PR_{105}  PR_ub_{105} 1
    PR_{105}  PR_lb_{105} 1
    PR_{105}  OBJ       56.48477999999999 
    ER_{105}  expansion_budget 0.30195
    ER_{105}  PR_ub_{105} -0.8
    ER_{105}  ER_lb_{105} 1
    ER_{105}  PR_lb_{105} -0.2
    ER_{105}  OBJ       0.30195
    PR_{106}  expansion_budget 56.20418
    PR_{106}  PR_ub_{106} 1
    PR_{106}  PR_lb_{106} 1
    PR_{106}  OBJ       56.20418
    ER_{106}  expansion_budget 0.30045
    ER_{106}  PR_ub_{106} -0.8
    ER_{106}  ER_lb_{106} 1
    ER_{106}  PR_lb_{106} -0.2
    ER_{106}  OBJ       0.30045
    PR_{107}  expansion_budget 55.58686
    PR_{107}  PR_ub_{107} 1
    PR_{107}  PR_lb_{107} 1
    PR_{107}  OBJ       55.58686
    ER_{107}  expansion_budget 0.29715
    ER_{107}  PR_ub_{107} -0.8
    ER_{107}  ER_lb_{107} 1
    ER_{107}  PR_lb_{107} -0.2
    ER_{107}  OBJ       0.29715
    PR_{108}  expansion_budget 56.372539999999994 
    PR_{108}  PR_ub_{108} 1
    PR_{108}  PR_lb_{108} 1
    PR_{108}  OBJ       56.372539999999994 
    ER_{108}  expansion_budget 0.30134999999999995 
    ER_{108}  PR_ub_{108} -0.8
    ER_{108}  ER_lb_{108} 1
    ER_{108}  PR_lb_{108} -0.2
    ER_{108}  OBJ       0.30134999999999995 
    PR_{109}  expansion_budget 55.9797
    PR_{109}  PR_ub_{109} 1
    PR_{109}  PR_lb_{109} 1
    PR_{109}  OBJ       55.9797
    ER_{109}  expansion_budget 0.29925
    ER_{109}  PR_ub_{109} -0.8
    ER_{109}  ER_lb_{109} 1
    ER_{109}  PR_lb_{109} -0.2
    ER_{109}  OBJ       0.29925
    PR_{110}  expansion_budget 55.75522
    PR_{110}  PR_ub_{110} 1
    PR_{110}  PR_lb_{110} 1
    PR_{110}  OBJ       55.75522
    ER_{110}  expansion_budget 0.29805
    ER_{110}  PR_ub_{110} -0.8
    ER_{110}  ER_lb_{110} 1
    ER_{110}  PR_lb_{110} -0.2
    ER_{110}  OBJ       0.29805
    PR_{111}  expansion_budget 56.148059999999994 
    PR_{111}  PR_ub_{111} 1
    PR_{111}  PR_lb_{111} 1
    PR_{111}  OBJ       56.148059999999994 
    ER_{111}  expansion_budget 0.30015
    ER_{111}  PR_ub_{111} -0.8
    ER_{111}  ER_lb_{111} 1
    ER_{111}  PR_lb_{111} -0.2
    ER_{111}  OBJ       0.30015
    PR_{112}  expansion_budget 56.42866
    PR_{112}  PR_ub_{112} 1
    PR_{112}  PR_lb_{112} 1
    PR_{112}  OBJ       56.42866
    ER_{112}  expansion_budget 0.30165000000000003 
    ER_{112}  PR_ub_{112} -0.8
    ER_{112}  ER_lb_{112} 1
    ER_{112}  PR_lb_{112} -0.2
    ER_{112}  OBJ       0.30165000000000003 
    PR_{113}  expansion_budget 56.09194
    PR_{113}  PR_ub_{113} 1
    PR_{113}  PR_lb_{113} 1
    PR_{113}  OBJ       56.09194
    ER_{113}  expansion_budget 0.29985
    ER_{113}  PR_ub_{113} -0.8
    ER_{113}  ER_lb_{113} 1
    ER_{113}  PR_lb_{113} -0.2
    ER_{113}  OBJ       0.29985
    PR_{114}  expansion_budget 55.53074
    PR_{114}  PR_ub_{114} 1
    PR_{114}  PR_lb_{114} 1
    PR_{114}  OBJ       55.53074
    ER_{114}  expansion_budget 0.29685
    ER_{114}  PR_ub_{114} -0.8
    ER_{114}  ER_lb_{114} 1
    ER_{114}  PR_lb_{114} -0.2
    ER_{114}  OBJ       0.29685
    PR_{115}  expansion_budget 56.31642
    PR_{115}  PR_ub_{115} 1
    PR_{115}  PR_lb_{115} 1
    PR_{115}  OBJ       56.31642
    ER_{115}  expansion_budget 0.30105
    ER_{115}  PR_ub_{115} -0.8
    ER_{115}  ER_lb_{115} 1
    ER_{115}  PR_lb_{115} -0.2
    ER_{115}  OBJ       0.30105
    PR_{116}  expansion_budget 55.6991
    PR_{116}  PR_ub_{116} 1
    PR_{116}  PR_lb_{116} 1
    PR_{116}  OBJ       55.6991
    ER_{116}  expansion_budget 0.29775
    ER_{116}  PR_ub_{116} -0.8
    ER_{116}  ER_lb_{116} 1
    ER_{116}  PR_lb_{116} -0.2
    ER_{116}  OBJ       0.29775
    PR_{117}  expansion_budget 56.260299999999994 
    PR_{117}  PR_ub_{117} 1
    PR_{117}  PR_lb_{117} 1
    PR_{117}  OBJ       56.260299999999994 
    ER_{117}  expansion_budget 0.30074999999999996 
    ER_{117}  PR_ub_{117} -0.8
    ER_{117}  ER_lb_{117} 1
    ER_{117}  PR_lb_{117} -0.2
    ER_{117}  OBJ       0.30074999999999996 
    PR_{118}  expansion_budget 56.03582
    PR_{118}  PR_ub_{118} 1
    PR_{118}  PR_lb_{118} 1
    PR_{118}  OBJ       56.03582
    ER_{118}  expansion_budget 0.29955
    ER_{118}  PR_ub_{118} -0.8
    ER_{118}  ER_lb_{118} 1
    ER_{118}  PR_lb_{118} -0.2
    ER_{118}  OBJ       0.29955
    PR_{119}  expansion_budget 55.86746
    PR_{119}  PR_ub_{119} 1
    PR_{119}  PR_lb_{119} 1
    PR_{119}  OBJ       55.86746
    ER_{119}  expansion_budget 0.29865
    ER_{119}  PR_ub_{119} -0.8
    ER_{119}  ER_lb_{119} 1
    ER_{119}  PR_lb_{119} -0.2
    ER_{119}  OBJ       0.29865
    PR_{120}  expansion_budget 55.92358
    PR_{120}  PR_ub_{120} 1
    PR_{120}  PR_lb_{120} 1
    PR_{120}  OBJ       55.92358
    ER_{120}  expansion_budget 0.29895
    ER_{120}  PR_ub_{120} -0.8
    ER_{120}  ER_lb_{120} 1
    ER_{120}  PR_lb_{120} -0.2
    ER_{120}  OBJ       0.29895
    PR_{121}  expansion_budget 55.47462
    PR_{121}  PR_ub_{121} 1
    PR_{121}  PR_lb_{121} 1
    PR_{121}  OBJ       55.47462
    ER_{121}  expansion_budget 0.29655
    ER_{121}  PR_ub_{121} -0.8
    ER_{121}  ER_lb_{121} 1
    ER_{121}  PR_lb_{121} -0.2
    ER_{121}  OBJ       0.29655
    PR_{122}  expansion_budget 56.76538
    PR_{122}  PR_ub_{122} 1
    PR_{122}  PR_lb_{122} 1
    PR_{122}  OBJ       56.76538
    ER_{122}  expansion_budget 0.30345
    ER_{122}  PR_ub_{122} -0.8
    ER_{122}  ER_lb_{122} 1
    ER_{122}  PR_lb_{122} -0.2
    ER_{122}  OBJ       0.30345
    PR_{123}  expansion_budget 56.5409
    PR_{123}  PR_ub_{123} 1
    PR_{123}  PR_lb_{123} 1
    PR_{123}  OBJ       56.5409
    ER_{123}  expansion_budget 0.30225
    ER_{123}  PR_ub_{123} -0.8
    ER_{123}  ER_lb_{123} 1
    ER_{123}  PR_lb_{123} -0.2
    ER_{123}  OBJ       0.30225
    PR_{124}  expansion_budget 55.81134
    PR_{124}  PR_ub_{124} 1
    PR_{124}  PR_lb_{124} 1
    PR_{124}  OBJ       55.81134
    ER_{124}  expansion_budget 0.29835
    ER_{124}  PR_ub_{124} -0.8
    ER_{124}  ER_lb_{124} 1
    ER_{124}  PR_lb_{124} -0.2
    ER_{124}  OBJ       0.29835
RHS
    rhs       expansion_budget 1000
    rhs       PR_ub_{101} 0
    rhs       PR_ub_{102} 0
    rhs       PR_ub_{103} 0
    rhs       PR_ub_{104} 0
    rhs       PR_ub_{105} 0
    rhs       PR_ub_{106} 0
    rhs       PR_ub_{107} 0
    rhs       PR_ub_{108} 0
    rhs       PR_ub_{109} 0
    rhs       PR_ub_{110} 0
    rhs       PR_ub_{111} 0
    rhs       PR_ub_{112} 0
    rhs       PR_ub_{113} 0
    rhs       PR_ub_{114} 0
    rhs       PR_ub_{115} 0
    rhs       PR_ub_{116} 0
    rhs       PR_ub_{117} 0
    rhs       PR_ub_{118} 0
    rhs       PR_ub_{119} 0
    rhs       PR_ub_{120} 0
    rhs       PR_ub_{121} 0
    rhs       PR_ub_{122} 0
    rhs       PR_ub_{123} 0
    rhs       PR_ub_{124} 0
    rhs       ER_lb_{101} 0
    rhs       PR_lb_{101} 0
    rhs       ER_lb_{102} 0
    rhs       PR_lb_{102} 0
    rhs       ER_lb_{103} 0
    rhs       PR_lb_{103} 0
    rhs       ER_lb_{104} 0
    rhs       PR_lb_{104} 0
    rhs       ER_lb_{105} 0
    rhs       PR_lb_{105} 0
    rhs       ER_lb_{106} 0
    rhs       PR_lb_{106} 0
    rhs       ER_lb_{107} 0
    rhs       PR_lb_{107} 0
    rhs       ER_lb_{108} 0
    rhs       PR_lb_{108} 0
    rhs       ER_lb_{109} 0
    rhs       PR_lb_{109} 0
    rhs       ER_lb_{110} 0
    rhs       PR_lb_{110} 0
    rhs       ER_lb_{111} 0
    rhs       PR_lb_{111} 0
    rhs       ER_lb_{112} 0
    rhs       PR_lb_{112} 0
    rhs       ER_lb_{113} 0
    rhs       PR_lb_{113} 0
    rhs       ER_lb_{114} 0
    rhs       PR_lb_{114} 0
    rhs       ER_lb_{115} 0
    rhs       PR_lb_{115} 0
    rhs       ER_lb_{116} 0
    rhs       PR_lb_{116} 0
    rhs       ER_lb_{117} 0
    rhs       PR_lb_{117} 0
    rhs       ER_lb_{118} 0
    rhs       PR_lb_{118} 0
    rhs       ER_lb_{119} 0
    rhs       PR_lb_{119} 0
    rhs       ER_lb_{120} 0
    rhs       PR_lb_{120} 0
    rhs       ER_lb_{121} 0
    rhs       PR_lb_{121} 0
    rhs       ER_lb_{122} 0
    rhs       PR_lb_{122} 0
    rhs       ER_lb_{123} 0
    rhs       PR_lb_{123} 0
    rhs       ER_lb_{124} 0
    rhs       PR_lb_{124} 0
RANGES
BOUNDS
 FR bounds    PR_{101}
 FR bounds    ER_{101}
 FR bounds    PR_{102}
 FR bounds    ER_{102}
 FR bounds    PR_{103}
 FR bounds    ER_{103}
 FR bounds    PR_{104}
 FR bounds    ER_{104}
 FR bounds    PR_{105}
 FR bounds    ER_{105}
 FR bounds    PR_{106}
 FR bounds    ER_{106}
 FR bounds    PR_{107}
 FR bounds    ER_{107}
 FR bounds    PR_{108}
 FR bounds    ER_{108}
 FR bounds    PR_{109}
 FR bounds    ER_{109}
 FR bounds    PR_{110}
 FR bounds    ER_{110}
 FR bounds    PR_{111}
 FR bounds    ER_{111}
 FR bounds    PR_{112}
 FR bounds    ER_{112}
 FR bounds    PR_{113}
 FR bounds    ER_{113}
 FR bounds    PR_{114}
 FR bounds    ER_{114}
 FR bounds    PR_{115}
 FR bounds    ER_{115}
 FR bounds    PR_{116}
 FR bounds    ER_{116}
 FR bounds    PR_{117}
 FR bounds    ER_{117}
 FR bounds    PR_{118}
 FR bounds    ER_{118}
 FR bounds    PR_{119}
 FR bounds    ER_{119}
 FR bounds    PR_{120}
 FR bounds    ER_{120}
 FR bounds    PR_{121}
 FR bounds    ER_{121}
 FR bounds    PR_{122}
 FR bounds    ER_{122}
 FR bounds    PR_{123}
 FR bounds    ER_{123}
 FR bounds    PR_{124}
 FR bounds    ER_{124}
ENDATA
